&input
	fildyn = 'aluminium.bcc.dyn',
	zasr = 'simple',
	flfrc = 'aluminium.bcc.121212.fc',
/
